\ Model TSP
\ LP format - for model browsing. Use MPS format to capture full model detail.
Minimize
  2.24 x(0)(1) + 4.12 x(0)(2) + 6 x(0)(3) + 2.24 x(1)(0) + 2.83 x(1)(2)
   + 4.12 x(1)(3) + 4.12 x(2)(0) + 2.83 x(2)(1) + 2.24 x(2)(3) + 6 x(3)(0)
   + 4.12 x(3)(1) + 2.24 x(3)(2) + 0 u(0)
Subject To
 R0: x(0)(0) + x(1)(0) + x(2)(0) + x(3)(0) = 1
 R1: x(0)(1) + x(1)(1) + x(2)(1) + x(3)(1) = 1
 R2: x(0)(2) + x(1)(2) + x(2)(2) + x(3)(2) = 1
 R3: x(0)(3) + x(1)(3) + x(2)(3) + x(3)(3) = 1
 R4: x(0)(0) + x(0)(1) + x(0)(2) + x(0)(3) = 1
 R5: x(1)(0) + x(1)(1) + x(1)(2) + x(1)(3) = 1
 R6: x(2)(0) + x(2)(1) + x(2)(2) + x(2)(3) = 1
 R7: x(3)(0) + x(3)(1) + x(3)(2) + x(3)(3) = 1
 R8: - 3 x(1)(2) - u(1) + u(2) >= -2
 R9: - 3 x(1)(3) - u(1) + u(3) >= -2
 R10: - 3 x(2)(1) + u(1) - u(2) >= -2
 R11: - 3 x(2)(3) - u(2) + u(3) >= -2
 R12: - 3 x(3)(1) + u(1) - u(3) >= -2
 R13: - 3 x(3)(2) + u(2) - u(3) >= -2
Bounds
 x(0)(0) = 0
 x(1)(1) = 0
 x(2)(2) = 0
 x(3)(3) = 0
 u(0) = 0
 1 <= u(1) <= 3
 1 <= u(2) <= 3
 1 <= u(3) <= 3
Binaries
 x(0)(0) x(0)(1) x(0)(2) x(0)(3) x(1)(0) x(1)(1) x(1)(2) x(1)(3) x(2)(0)
 x(2)(1) x(2)(2) x(2)(3) x(3)(0) x(3)(1) x(3)(2) x(3)(3)
End
